DIMENSION: 22
EDGE_WEIGHT_TYPE: EXPLICIT
EDGE_WEIGHT_FORMAT: FULL_MATRIX
EDGE_WEIGHT_SECTION:
32767 32767 32767 32767 32767 55 32767 32767 32767 32767 32767 32767 32767 7 32767 32767 32767 32767 32767 32767 32767 47 
32767 32767 32767 32767 63 32767 32767 31 32767 79 32767 32767 32767 32767 100 32767 32767 36 32767 44 32767 32767 
32767 32767 32767 32767 32767 32767 32767 32767 32767 32767 32767 32767 32767 32767 32767 68 27 5 32767 32767 32767 32767 
32767 32767 32767 32767 32767 32767 32767 32767 32767 49 32767 14 12 32767 32767 32767 32767 32767 21 23 32767 32767 
32767 63 32767 32767 32767 46 53 42 32767 32767 32767 32767 32767 32767 32767 32767 32767 32767 32767 32767 32767 32767 
55 32767 32767 32767 46 32767 32767 32 32767 32767 32767 32767 32767 32767 96 32767 76 91 82 32767 64 32767 
32767 32767 32767 32767 53 32767 32767 32767 42 32767 32767 32767 32767 67 32767 32767 32767 32767 59 32767 43 32767 
32767 31 32767 32767 42 32 32767 32767 32767 91 62 32767 32767 32767 32767 32767 32767 56 32767 32767 64 98 
32767 32767 32767 32767 32767 32767 42 32767 32767 32767 63 74 5 32767 32767 32767 32767 32767 32767 32767 41 5 
32767 79 32767 49 32767 32767 32767 91 32767 32767 32767 27 32767 32767 87 32767 32767 32767 18 32767 32767 32767 
32767 32767 32767 32767 32767 32767 32767 62 63 32767 32767 38 32767 32767 2 32767 32767 32767 15 32767 32767 32767 
32767 32767 32767 14 32767 32767 32767 32767 74 27 38 32767 32767 32767 32767 32767 32767 32767 32767 32767 32767 8 
32767 32767 32767 12 32767 32767 32767 32767 5 32767 32767 32767 32767 32767 77 32767 32767 62 32767 32767 32767 32767 
7 32767 32767 32767 32767 32767 67 32767 32767 32767 32767 32767 32767 32767 32767 32767 32767 93 4 32767 32767 36 
32767 100 32767 32767 32767 96 32767 32767 32767 87 2 32767 77 32767 32767 32767 12 28 32767 32767 20 32767 
32767 32767 68 32767 32767 32767 32767 32767 32767 32767 32767 32767 32767 32767 32767 32767 48 80 32767 84 32767 32767 
32767 32767 27 32767 32767 76 32767 32767 32767 32767 32767 32767 32767 32767 12 48 32767 32767 66 32767 58 32767 
32767 36 5 32767 32767 91 32767 56 32767 32767 32767 32767 62 93 28 80 32767 32767 32767 32767 82 32767 
32767 32767 32767 21 32767 82 59 32767 32767 18 15 32767 32767 4 32767 32767 66 32767 32767 32767 42 32767 
32767 44 32767 23 32767 32767 32767 32767 32767 32767 32767 32767 32767 32767 32767 84 32767 32767 32767 32767 6 32767 
32767 32767 32767 32767 32767 64 43 64 41 32767 32767 32767 32767 32767 20 32767 58 82 42 6 32767 77 
47 32767 32767 32767 32767 32767 32767 98 5 32767 32767 8 32767 36 32767 32767 32767 32767 32767 32767 77 32767 
EOF